c CNF file corresponding to a (partial) station packing problem.
p cnf 3609 229
1 2 3 4 5 6 7 8 9 10 11 12 13 14 0
-1 -2 0
-1 -3 0
-1 -4 0
-1 -5 0
-1 -6 0
-1 -7 0
-1 -8 0
-1 -9 0
-1 -10 0
-1 -11 0
-1 -12 0
-1 -13 0
-1 -14 0
-2 -3 0
-2 -4 0
-2 -5 0
-2 -6 0
-2 -7 0
-2 -8 0
-2 -9 0
-2 -10 0
-2 -11 0
-2 -12 0
-2 -13 0
-2 -14 0
-3 -4 0
-3 -5 0
-3 -6 0
-3 -7 0
-3 -8 0
-3 -9 0
-3 -10 0
-3 -11 0
-3 -12 0
-3 -13 0
-3 -14 0
-4 -5 0
-4 -6 0
-4 -7 0
-4 -8 0
-4 -9 0
-4 -10 0
-4 -11 0
-4 -12 0
-4 -13 0
-4 -14 0
-5 -6 0
-5 -7 0
-5 -8 0
-5 -9 0
-5 -10 0
-5 -11 0
-5 -12 0
-5 -13 0
-5 -14 0
-6 -7 0
-6 -8 0
-6 -9 0
-6 -10 0
-6 -11 0
-6 -12 0
-6 -13 0
-6 -14 0
-7 -8 0
-7 -9 0
-7 -10 0
-7 -11 0
-7 -12 0
-7 -13 0
-7 -14 0
-8 -9 0
-8 -10 0
-8 -11 0
-8 -12 0
-8 -13 0
-8 -14 0
-9 -10 0
-9 -11 0
-9 -12 0
-9 -13 0
-9 -14 0
-10 -11 0
-10 -12 0
-10 -13 0
-10 -14 0
-11 -12 0
-11 -13 0
-11 -14 0
-12 -13 0
-12 -14 0
-13 -14 0
3593 3594 3595 3596 3597 3598 3599 3600 3601 3602 3603 3604 3605 3606 3607 3608 3609 0
-3593 -3594 0
-3593 -3595 0
-3593 -3596 0
-3593 -3597 0
-3593 -3598 0
-3593 -3599 0
-3593 -3600 0
-3593 -3601 0
-3593 -3602 0
-3593 -3603 0
-3593 -3604 0
-3593 -3605 0
-3593 -3606 0
-3593 -3607 0
-3593 -3608 0
-3593 -3609 0
-3594 -3595 0
-3594 -3596 0
-3594 -3597 0
-3594 -3598 0
-3594 -3599 0
-3594 -3600 0
-3594 -3601 0
-3594 -3602 0
-3594 -3603 0
-3594 -3604 0
-3594 -3605 0
-3594 -3606 0
-3594 -3607 0
-3594 -3608 0
-3594 -3609 0
-3595 -3596 0
-3595 -3597 0
-3595 -3598 0
-3595 -3599 0
-3595 -3600 0
-3595 -3601 0
-3595 -3602 0
-3595 -3603 0
-3595 -3604 0
-3595 -3605 0
-3595 -3606 0
-3595 -3607 0
-3595 -3608 0
-3595 -3609 0
-3596 -3597 0
-3596 -3598 0
-3596 -3599 0
-3596 -3600 0
-3596 -3601 0
-3596 -3602 0
-3596 -3603 0
-3596 -3604 0
-3596 -3605 0
-3596 -3606 0
-3596 -3607 0
-3596 -3608 0
-3596 -3609 0
-3597 -3598 0
-3597 -3599 0
-3597 -3600 0
-3597 -3601 0
-3597 -3602 0
-3597 -3603 0
-3597 -3604 0
-3597 -3605 0
-3597 -3606 0
-3597 -3607 0
-3597 -3608 0
-3597 -3609 0
-3598 -3599 0
-3598 -3600 0
-3598 -3601 0
-3598 -3602 0
-3598 -3603 0
-3598 -3604 0
-3598 -3605 0
-3598 -3606 0
-3598 -3607 0
-3598 -3608 0
-3598 -3609 0
-3599 -3600 0
-3599 -3601 0
-3599 -3602 0
-3599 -3603 0
-3599 -3604 0
-3599 -3605 0
-3599 -3606 0
-3599 -3607 0
-3599 -3608 0
-3599 -3609 0
-3600 -3601 0
-3600 -3602 0
-3600 -3603 0
-3600 -3604 0
-3600 -3605 0
-3600 -3606 0
-3600 -3607 0
-3600 -3608 0
-3600 -3609 0
-3601 -3602 0
-3601 -3603 0
-3601 -3604 0
-3601 -3605 0
-3601 -3606 0
-3601 -3607 0
-3601 -3608 0
-3601 -3609 0
-3602 -3603 0
-3602 -3604 0
-3602 -3605 0
-3602 -3606 0
-3602 -3607 0
-3602 -3608 0
-3602 -3609 0
-3603 -3604 0
-3603 -3605 0
-3603 -3606 0
-3603 -3607 0
-3603 -3608 0
-3603 -3609 0
-3604 -3605 0
-3604 -3606 0
-3604 -3607 0
-3604 -3608 0
-3604 -3609 0
-3605 -3606 0
-3605 -3607 0
-3605 -3608 0
-3605 -3609 0
-3606 -3607 0
-3606 -3608 0
-3606 -3609 0
-3607 -3608 0
-3607 -3609 0
-3608 -3609 0
